p edge 169 309
e 1 2
e 1 3
e 2 4
e 2 5
e 2 59
e 3 5
e 3 6
e 4 7
e 4 8
e 5 8
e 5 9
e 6 9
e 6 40
e 7 10
e 7 11
e 8 11
e 8 12
e 9 12
e 9 41
e 9 82
e 10 13
e 10 14
e 11 14
e 11 15
e 12 15
e 12 42
e 13 16
e 13 17
e 14 17
e 14 18
e 14 71
e 15 18
e 15 43
e 15 123
e 16 19
e 16 20
e 16 75
e 17 20
e 17 21
e 18 44
e 19 22
e 19 23
e 20 23
e 20 24
e 21 24
e 21 45
e 21 112
e 22 25
e 22 26
e 23 26
e 23 27
e 24 27
e 24 46
e 24 162
e 25 28
e 25 29
e 26 29
e 26 30
e 27 30
e 27 47
e 28 31
e 28 32
e 28 133
e 28 77
e 28 30
e 28 39
e 29 32
e 29 33
e 30 33
e 30 48
e 31 34
e 31 35
e 31 61
e 32 35
e 32 36
e 33 36
e 33 49
e 34 37
e 35 37
e 35 38
e 36 50
e 37 39
e 38 39
e 38 51
e 38 67
e 39 52
e 39 155
e 40 41
e 40 53
e 41 42
e 41 84
e 42 43
e 42 55
e 43 44
e 43 56
e 44 45
e 44 57
e 44 101
e 45 46
e 46 47
e 46 59
e 47 48
e 48 49
e 48 61
e 49 50
e 49 62
e 50 51
e 50 63
e 51 52
e 51 64
e 52 65
e 53 54
e 53 66
e 54 55
e 55 56
e 55 68
e 56 57
e 56 69
e 56 66
e 57 58
e 57 70
e 58 59
e 58 71
e 59 60
e 59 72
e 60 61
e 60 73
e 61 62
e 61 74
e 62 63
e 62 75
e 63 64
e 63 76
e 64 65
e 64 77
e 65 78
e 66 67
e 66 79
e 67 68
e 67 80
e 68 69
e 68 81
e 69 70
e 69 82
e 70 83
e 71 72
e 71 84
e 71 121
e 72 73
e 72 85
e 73 74
e 73 86
e 74 75
e 74 87
e 76 77
e 76 89
e 77 78
e 77 90
e 78 91
e 79 80
e 79 92
e 80 81
e 80 93
e 81 82
e 81 94
e 81 140
e 82 83
e 82 95
e 83 84
e 83 96
e 84 85
e 84 97
e 85 86
e 86 87
e 86 99
e 87 88
e 87 100
e 88 89
e 88 101
e 89 90
e 89 102
e 90 91
e 90 103
e 91 104
e 92 93
e 92 105
e 93 94
e 93 106
e 94 95
e 94 107
e 95 96
e 95 108
e 96 97
e 96 109
e 97 110
e 98 99
e 98 111
e 99 100
e 99 112
e 100 101
e 100 113
e 101 102
e 101 114
e 102 103
e 102 115
e 103 104
e 103 116
e 103 119
e 104 117
e 105 118
e 105 157
e 106 107
e 107 108
e 107 120
e 108 109
e 108 121
e 109 110
e 109 122
e 110 111
e 110 123
e 111 124
e 113 114
e 113 126
e 114 115
e 114 127
e 115 116
e 115 128
e 116 117
e 116 129
e 117 130
e 118 119
e 118 131
e 119 120
e 119 132
e 120 121
e 120 133
e 120 153
e 121 134
e 122 123
e 122 135
e 123 124
e 123 136
e 124 125
e 125 126
e 125 137
e 126 127
e 126 138
e 127 128
e 127 139
e 128 129
e 128 140
e 129 130
e 129 141
e 130 142
e 131 132
e 131 143
e 132 133
e 132 144
e 133 134
e 133 145
e 134 146
e 135 136
e 136 148
e 136 149
e 137 148
e 137 138
e 137 151
e 138 139
e 138 152
e 139 140
e 139 153
e 140 141
e 140 154
e 141 142
e 141 155
e 142 156
e 143 144
e 143 157
e 144 158
e 145 146
e 145 159
e 146 147
e 146 160
e 147 149
e 147 161
e 148 150
e 149 150
e 150 151
e 150 163
e 151 152
e 152 153
e 152 165
e 153 166
e 154 155
e 154 167
e 155 156
e 155 168
e 156 169
e 157 158
e 158 159
e 159 160
e 160 161
e 161 162
e 162 163
e 163 164
e 165 166
e 166 167
e 167 168
e 168 169
l 17
t 98 169
